NAME: Random_80_5
ELLAPSED_TIME_(ms): 1
TOUR_SIZE: 2095.9722
TOUR_SECTION
0
30
19
22
41
67
39
62
69
17
29
47
18
59
54
21
9
4
75
43
16
31
27
48
28
78
36
51
12
3
53
20
79
40
32
8
42
56
77
1
58
74
7
37
55
60
2
71
73
63
46
6
65
14
44
72
35
64
68
76
25
13
11
38
52
45
66
5
57
70
49
23
10
50
34
15
24
33
26
61
0
EOF
